0 0 0 0
0 1 0 0
0 2 0 0
0 3 0 0
0 4 0 3
0 5 0 4
0 6 0 4
0 7 1 3
0 8 0 8
0 9 0 4
0 10 0 5
0 11 0 6
0 12 0 9
0 13 1 8
0 14 0 8
0 15 0 5
0 16 0 2
0 17 0 13
0 18 0 6
0 19 0 10
0 20 0 10
0 21 0 12
0 22 0 13
0 23 1 10
0 24 1 14
0 25 0 14
0 26 0 16
0 27 0 15
0 28 0 14
0 29 1 17
0 30 0 18
0 31 0 19
